c This file is generated by v2cnfMtr
c Generated on Tue Feb 16 22:17:55 2016
p cnf 189 458
-3 -4 -22 0
3 22 0
4 22 0
-2 -22 -21 0
2 21 0
22 21 0
-22 -5 -23 0
22 23 0
5 23 0
-20 -21 -18 0
20 18 0
21 18 0
-21 -23 -19 0
21 19 0
23 19 0
8 24 0
-8 -24 0
9 25 0
-9 -25 0
1 26 0
-1 -26 0
-1 -24 28 0
1 -28 0
24 -28 0
-26 -24 29 0
26 -29 0
24 -29 0
-6 -8 30 0
6 -30 0
8 -30 0
-7 -8 31 0
7 -31 0
8 -31 0
-28 -25 42 0
28 -42 0
25 -42 0
-29 -9 35 0
29 -35 0
9 -35 0
-30 -25 33 0
30 -33 0
25 -33 0
-31 -9 32 0
31 -32 0
9 -32 0
32 33 -34 0
-32 34 0
-33 34 0
34 35 -36 0
-34 36 0
-35 36 0
42 36 -27 0
-42 27 0
-36 27 0
10 38 0
-10 -38 0
11 39 0
-11 -39 0
3 40 0
-3 -40 0
-3 -38 42 0
3 -42 0
38 -42 0
-40 -38 43 0
40 -43 0
38 -43 0
-6 -10 44 0
6 -44 0
10 -44 0
-7 -10 45 0
7 -45 0
10 -45 0
-42 -39 56 0
42 -56 0
39 -56 0
-43 -11 49 0
43 -49 0
11 -49 0
-44 -39 47 0
44 -47 0
39 -47 0
-45 -11 46 0
45 -46 0
11 -46 0
46 47 -48 0
-46 48 0
-47 48 0
48 49 -50 0
-48 50 0
-49 50 0
56 50 -41 0
-56 41 0
-50 41 0
12 52 0
-12 -52 0
13 53 0
-13 -53 0
4 54 0
-4 -54 0
-4 -52 56 0
4 -56 0
52 -56 0
-54 -52 57 0
54 -57 0
52 -57 0
-6 -12 58 0
6 -58 0
12 -58 0
-7 -12 59 0
7 -59 0
12 -59 0
-56 -53 70 0
56 -70 0
53 -70 0
-57 -13 63 0
57 -63 0
13 -63 0
-58 -53 61 0
58 -61 0
53 -61 0
-59 -13 60 0
59 -60 0
13 -60 0
60 61 -62 0
-60 62 0
-61 62 0
62 63 -64 0
-62 64 0
-63 64 0
70 64 -55 0
-70 55 0
-64 55 0
14 66 0
-14 -66 0
15 67 0
-15 -67 0
5 68 0
-5 -68 0
-5 -66 70 0
5 -70 0
66 -70 0
-68 -66 71 0
68 -71 0
66 -71 0
-6 -14 72 0
6 -72 0
14 -72 0
-7 -14 73 0
7 -73 0
14 -73 0
-70 -67 84 0
70 -84 0
67 -84 0
-71 -15 77 0
71 -77 0
15 -77 0
-72 -67 75 0
72 -75 0
67 -75 0
-73 -15 74 0
73 -74 0
15 -74 0
74 75 -76 0
-74 76 0
-75 76 0
76 77 -78 0
-76 78 0
-77 78 0
84 78 -69 0
-84 69 0
-78 69 0
16 80 0
-16 -80 0
17 81 0
-17 -81 0
83 82 0
-83 -82 0
-83 -80 84 0
83 -84 0
80 -84 0
-82 -80 85 0
82 -85 0
80 -85 0
-6 -16 86 0
6 -86 0
16 -86 0
-7 -16 87 0
7 -87 0
16 -87 0
-84 -81 93 0
84 -93 0
81 -93 0
-85 -17 91 0
85 -91 0
17 -91 0
-86 -81 89 0
86 -89 0
81 -89 0
-87 -17 88 0
87 -88 0
17 -88 0
88 89 -90 0
-88 90 0
-89 90 0
90 91 -92 0
-90 92 0
-91 92 0
93 92 -20 0
-93 20 0
-92 20 0
-27 -41 -55 -69 -83 0
27 83 0
41 83 0
55 83 0
69 83 0
c The second circuit:
-96 -97 -115 0
96 115 0
97 115 0
-95 -115 -114 0
95 114 0
115 114 0
-115 -98 -116 0
115 116 0
98 116 0
-113 -114 -111 0
113 111 0
114 111 0
-114 -116 -112 0
114 112 0
116 112 0
101 117 0
-101 -117 0
102 118 0
-102 -118 0
94 119 0
-94 -119 0
-94 -117 121 0
94 -121 0
117 -121 0
-119 -117 122 0
119 -122 0
117 -122 0
-99 -101 123 0
99 -123 0
101 -123 0
-100 -101 124 0
100 -124 0
101 -124 0
-121 -118 135 0
121 -135 0
118 -135 0
-122 -102 128 0
122 -128 0
102 -128 0
-123 -118 126 0
123 -126 0
118 -126 0
-124 -102 125 0
124 -125 0
102 -125 0
125 126 -127 0
-125 127 0
-126 127 0
127 128 -129 0
-127 129 0
-128 129 0
135 129 -120 0
-135 120 0
-129 120 0
103 131 0
-103 -131 0
104 132 0
-104 -132 0
96 133 0
-96 -133 0
-96 -131 135 0
96 -135 0
131 -135 0
-133 -131 136 0
133 -136 0
131 -136 0
-99 -103 137 0
99 -137 0
103 -137 0
-100 -103 138 0
100 -138 0
103 -138 0
-135 -132 149 0
135 -149 0
132 -149 0
-136 -104 142 0
136 -142 0
104 -142 0
-137 -132 140 0
137 -140 0
132 -140 0
-138 -104 139 0
138 -139 0
104 -139 0
139 140 -141 0
-139 141 0
-140 141 0
141 142 -143 0
-141 143 0
-142 143 0
149 143 -134 0
-149 134 0
-143 134 0
105 145 0
-105 -145 0
106 146 0
-106 -146 0
97 147 0
-97 -147 0
-97 -145 149 0
97 -149 0
145 -149 0
-147 -145 150 0
147 -150 0
145 -150 0
-99 -105 151 0
99 -151 0
105 -151 0
-100 -105 152 0
100 -152 0
105 -152 0
-149 -146 163 0
149 -163 0
146 -163 0
-150 -106 156 0
150 -156 0
106 -156 0
-151 -146 154 0
151 -154 0
146 -154 0
-152 -106 153 0
152 -153 0
106 -153 0
153 154 -155 0
-153 155 0
-154 155 0
155 156 -157 0
-155 157 0
-156 157 0
163 157 -148 0
-163 148 0
-157 148 0
107 159 0
-107 -159 0
108 160 0
-108 -160 0
98 161 0
-98 -161 0
-98 -159 163 0
98 -163 0
159 -163 0
-161 -159 164 0
161 -164 0
159 -164 0
-99 -107 165 0
99 -165 0
107 -165 0
-100 -107 166 0
100 -166 0
107 -166 0
-163 -160 177 0
163 -177 0
160 -177 0
-164 -108 170 0
164 -170 0
108 -170 0
-165 -160 168 0
165 -168 0
160 -168 0
-166 -108 167 0
166 -167 0
108 -167 0
167 168 -169 0
-167 169 0
-168 169 0
169 170 -171 0
-169 171 0
-170 171 0
177 171 -162 0
-177 162 0
-171 162 0
109 173 0
-109 -173 0
110 174 0
-110 -174 0
176 175 0
-176 -175 0
-176 -173 177 0
176 -177 0
173 -177 0
-175 -173 178 0
175 -178 0
173 -178 0
-99 -109 179 0
99 -179 0
109 -179 0
-100 -109 180 0
100 -180 0
109 -180 0
-177 -174 186 0
177 -186 0
174 -186 0
-178 -110 184 0
178 -184 0
110 -184 0
-179 -174 182 0
179 -182 0
174 -182 0
-180 -110 181 0
180 -181 0
110 -181 0
181 182 -183 0
-181 183 0
-182 183 0
183 184 -185 0
-183 185 0
-184 185 0
186 185 -113 0
-186 113 0
-185 113 0
-120 -134 -148 -162 -176 0
120 176 0
134 176 0
148 176 0
162 176 0
6 0
-7 0
c Force PIs of 2 ckts to be the same:
1 -94 0
-1 94 0
2 -95 0
-2 95 0
3 -96 0
-3 96 0
4 -97 0
-4 97 0
5 -98 0
-5 98 0
6 -99 0
-6 99 0
7 -100 0
-7 100 0
c XOR outputs of 2 ckts:
-18 -111 -187 0
18 111 -187 0
18 -111 187 0
-18 111 187 0
-19 -112 -188 0
19 112 -188 0
19 -112 188 0
-19 112 188 0
c The last OR gate of the miter:
187 188 -189 0
-187 189 0
-188 189 0
189 0
